30
1 0 3
2 0 5
2 1 12
3 0 4
3 1 20
3 2 7
4 0 19
4 1 8
4 2 12
4 3 15
5 0 15
5 1 8
5 2 7
5 3 5
5 4 10
6 0 2
6 1 20
6 2 3
6 3 17
6 4 5
6 5 6
7 0 7
7 1 12
7 2 2
7 3 10
7 4 6
7 5 16
7 6 5
8 0 8
8 1 16
8 2 19
8 3 8
8 4 3
8 5 12
8 6 16
8 7 11
9 0 17
9 1 15
9 2 18
9 3 13
9 4 10
9 5 16
9 6 2
9 7 8
9 8 4
10 0 14
10 1 12
10 2 1
10 3 10
10 4 7
10 5 16
10 6 13
10 7 20
10 8 6
10 9 17
11 0 6
11 1 5
11 2 7
11 3 12
11 4 19
11 5 13
11 6 1
11 7 8
11 8 2
11 9 20
11 10 14
12 0 7
12 1 11
12 2 3
12 3 20
12 4 5
12 5 6
12 6 11
12 7 11
12 8 9
12 9 11
12 10 16
12 11 20
13 0 5
13 1 3
13 2 17
13 3 12
13 4 10
13 5 11
13 6 1
13 7 20
13 8 13
13 9 4
13 10 15
13 11 14
13 12 4
14 0 7
14 1 8
14 2 5
14 3 17
14 4 15
14 5 9
14 6 3
14 7 18
14 8 10
14 9 4
14 10 19
14 11 9
14 12 14
14 13 11
15 0 9
15 1 6
15 2 19
15 3 9
15 4 2
15 5 5
15 6 14
15 7 2
15 8 3
15 9 15
15 10 15
15 11 15
15 12 3
15 13 9
15 14 17
16 0 2
16 1 7
16 2 15
16 3 4
16 4 3
16 5 5
16 6 1
16 7 1
16 8 8
16 9 17
16 10 2
16 11 19
16 12 5
16 13 11
16 14 6
16 15 9
17 0 7
17 1 20
17 2 3
17 3 9
17 4 17
17 5 5
17 6 10
17 7 13
17 8 7
17 9 12
17 10 12
17 11 14
17 12 5
17 13 10
17 14 11
17 15 7
17 16 8
18 0 5
18 1 17
18 2 17
18 3 16
18 4 3
18 5 4
18 6 1
18 7 13
18 8 10
18 9 6
18 10 13
18 11 8
18 12 2
18 13 17
18 14 16
18 15 14
18 16 18
18 17 10
19 0 4
19 1 3
19 2 2
19 3 17
19 4 1
19 5 16
19 6 14
19 7 10
19 8 18
19 9 12
19 10 10
19 11 2
19 12 1
19 13 13
19 14 2
19 15 12
19 16 13
19 17 11
19 18 14
20 0 3
20 1 11
20 2 1
20 3 16
20 4 10
20 5 6
20 6 11
20 7 14
20 8 7
20 9 4
20 10 6
20 11 13
20 12 15
20 13 1
20 14 12
20 15 3
20 16 4
20 17 8
20 18 6
20 19 8
21 0 18
21 1 9
21 2 10
21 3 10
21 4 13
21 5 5
21 6 13
21 7 5
21 8 11
21 9 6
21 10 17
21 11 17
21 12 19
21 13 12
21 14 4
21 15 1
21 16 9
21 17 15
21 18 6
21 19 14
21 20 2
22 0 12
22 1 13
22 2 18
22 3 5
22 4 19
22 5 15
22 6 6
22 7 2
22 8 20
22 9 13
22 10 9
22 11 6
22 12 9
22 13 8
22 14 8
22 15 8
22 16 10
22 17 20
22 18 14
22 19 8
22 20 4
22 21 3
23 0 1
23 1 19
23 2 14
23 3 8
23 4 12
23 5 5
23 6 10
23 7 16
23 8 20
23 9 9
23 10 18
23 11 17
23 12 17
23 13 18
23 14 3
23 15 1
23 16 3
23 17 16
23 18 10
23 19 4
23 20 14
23 21 5
23 22 2
24 0 3
24 1 17
24 2 1
24 3 16
24 4 20
24 5 20
24 6 2
24 7 1
24 8 1
24 9 13
24 10 12
24 11 10
24 12 13
24 13 19
24 14 8
24 15 1
24 16 12
24 17 12
24 18 10
24 19 6
24 20 16
24 21 12
24 22 7
24 23 20
25 0 20
25 1 10
25 2 7
25 3 6
25 4 18
25 5 12
25 6 20
25 7 12
25 8 3
25 9 14
25 10 12
25 11 8
25 12 7
25 13 17
25 14 13
25 15 20
25 16 20
25 17 8
25 18 11
25 19 19
25 20 7
25 21 10
25 22 17
25 23 8
25 24 18
26 0 18
26 1 7
26 2 15
26 3 13
26 4 13
26 5 13
26 6 20
26 7 1
26 8 10
26 9 3
26 10 14
26 11 6
26 12 11
26 13 15
26 14 2
26 15 2
26 16 10
26 17 4
26 18 18
26 19 7
26 20 14
26 21 20
26 22 7
26 23 4
26 24 14
26 25 7
27 0 14
27 1 9
27 2 16
27 3 12
27 4 7
27 5 18
27 6 4
27 7 14
27 8 7
27 9 5
27 10 4
27 11 10
27 12 9
27 13 7
27 14 10
27 15 3
27 16 15
27 17 4
27 18 7
27 19 5
27 20 7
27 21 19
27 22 16
27 23 5
27 24 13
27 25 13
27 26 14
28 0 3
28 1 14
28 2 15
28 3 2
28 4 9
28 5 15
28 6 5
28 7 18
28 8 18
28 9 1
28 10 6
28 11 18
28 12 15
28 13 15
28 14 11
28 15 16
28 16 16
28 17 13
28 18 14
28 19 19
28 20 9
28 21 4
28 22 15
28 23 9
28 24 17
28 25 2
28 26 16
28 27 14
29 0 6
29 1 9
29 2 3
29 3 13
29 4 14
29 5 9
29 6 6
29 7 16
29 8 1
29 9 14
29 10 5
29 11 19
29 12 20
29 13 2
29 14 13
29 15 5
29 16 8
29 17 12
29 18 16
29 19 8
29 20 14
29 21 9
29 22 12
29 23 4
29 24 13
29 25 3
29 26 7
29 27 12
29 28 6
